(declare-fun i27.i.i_5_122 () (_ BitVec 64))
(declare-fun cond17.i.i_5_124 () (_ BitVec 64))
(declare-fun i26.i.i_5_121 () (_ BitVec 64))
(declare-fun cmp12.i.i_5_123 () (_ BitVec 1))
(declare-fun dst_reg_5_100 () (_ BitVec 64))
(declare-fun dst_reg_5_98 () (_ BitVec 64))
(declare-fun i25.i.i_5_118 () (_ BitVec 64))
(declare-fun cond.i250.i_5_120 () (_ BitVec 64))
(declare-fun i.i245.i_5_112 () (_ BitVec 64))
(declare-fun cmp4.i.i_5_119 () (_ BitVec 1))
(declare-fun dst_reg_5_99 () (_ BitVec 64))
(declare-fun cmp245.i_5_29 () (_ BitVec 1))
(declare-fun cmp250.i_5_39 () (_ BitVec 1))
(declare-fun tobool253.not.i_5_41 () (_ BitVec 1))
(declare-fun tobool.not.i.i_5_26 () (_ BitVec 1))
(declare-fun cmp.i246.i_5_114 () (_ BitVec 1))
(declare-fun cmp1.i248.i_5_117 () (_ BitVec 1))
(declare-fun i24.i.i_5_115 () (_ BitVec 64))
(declare-fun src_reg1.sroa.24.0.copyload_5_23 () (_ BitVec 64))
(declare-fun i65.i_5_37 () (_ BitVec 64))
(declare-fun shr.i_5_45 () (_ BitVec 64))
(declare-fun .pn.i_5_69 () (_ BitVec 64))
(declare-fun i20.i_5_27 () (_ BitVec 64))
(declare-fun storemerge6.i_5_68 () (_ BitVec 64))
(declare-fun shr268.i_5_67 () (_ BitVec 64))
(declare-fun or37.i234.i_5_89 () (_ BitVec 64))
(declare-fun cond46.i236.i_5_91 () (_ BitVec 64))
(declare-fun shr287.i_5_74 () (_ BitVec 64))
(declare-fun cmp41.i235.i_5_90 () (_ BitVec 1))
(declare-fun storemerge5.i_5_70 () (_ BitVec 64))
(declare-fun cond31.i231.i_5_88 () (_ BitVec 64))
(declare-fun shr285.i_5_72 () (_ BitVec 64))
(declare-fun cmp26.i230.i_5_87 () (_ BitVec 1))
(declare-fun or10.i225.i_5_84 () (_ BitVec 64))
(declare-fun cond19.i227.i_5_86 () (_ BitVec 64))
(declare-fun i17.i223.i_5_81 () (_ BitVec 64))
(declare-fun cmp14.i226.i_5_85 () (_ BitVec 1))
(declare-fun and9.i224.i_5_83 () (_ BitVec 64))
(declare-fun dst_reg_5_52 () (_ BitVec 64))
(declare-fun or.i219.i_5_78 () (_ BitVec 64))
(declare-fun cond.i221.i_5_80 () (_ BitVec 64))
(declare-fun i.i213.i_5_75 () (_ BitVec 64))
(declare-fun cmp2.i220.i_5_79 () (_ BitVec 1))
(declare-fun and.i218.i_5_77 () (_ BitVec 64))
(declare-fun dst_reg_5_51 () (_ BitVec 64))
(declare-fun src_reg1.sroa.21.0.copyload_5_22 () (_ BitVec 64))
(declare-fun i68.i_5_73 () (_ BitVec 64))
(declare-fun dst_reg_5_8 () (_ BitVec 64))
(declare-fun i67.i_5_71 () (_ BitVec 64))
(declare-fun dst_reg_5_7 () (_ BitVec 64))
(declare-fun i29.i.i_5_128 () (_ BitVec 64))
(declare-fun cmp21.i.i_5_127 () (_ BitVec 1))
(declare-fun i28.i.i_5_125 () (_ BitVec 64))
(declare-fun cmp40.i.i_5_132 () (_ BitVec 1))
(declare-fun dst_reg_5_55 () (_ BitVec 32))
(declare-fun dst_reg_5_9 () (_ BitVec 32))
(declare-fun dst_reg_5_54 () (_ BitVec 64))
(declare-fun dst_reg_5_53 () (_ BitVec 64))
(declare-fun dst_reg_5_6 () (_ BitVec 64))
(declare-fun dst_reg_5_50 () (_ BitVec 64))
(declare-fun dst_reg_5_4 () (_ BitVec 64))
(declare-fun dst_reg_5_49 () (_ BitVec 64))
(declare-fun dst_reg_5_3 () (_ BitVec 64))
(declare-fun dst_reg_5_48 () (_ BitVec 32))
(declare-fun dst_reg_5_2 () (_ BitVec 32))
(declare-fun dst_reg_5_47 () (_ BitVec 32))
(declare-fun dst_reg_5_1 () (_ BitVec 32))
(declare-fun dst_reg_5_46 () (_ BitVec 32))
(declare-fun src_reg_5_65 () (_ BitVec 32))
(declare-fun src_reg_5_19 () (_ BitVec 32))
(declare-fun src_reg_5_64 () (_ BitVec 64))
(declare-fun src_reg_5_18 () (_ BitVec 64))
(declare-fun src_reg_5_63 () (_ BitVec 64))
(declare-fun src_reg_5_17 () (_ BitVec 64))
(declare-fun src_reg_5_62 () (_ BitVec 64))
(declare-fun src_reg_5_16 () (_ BitVec 64))
(declare-fun src_reg_5_61 () (_ BitVec 64))
(declare-fun src_reg_5_15 () (_ BitVec 64))
(declare-fun src_reg_5_60 () (_ BitVec 64))
(declare-fun src_reg_5_14 () (_ BitVec 64))
(declare-fun src_reg_5_59 () (_ BitVec 64))
(declare-fun src_reg_5_13 () (_ BitVec 64))
(declare-fun src_reg_5_58 () (_ BitVec 32))
(declare-fun src_reg_5_12 () (_ BitVec 32))
(declare-fun src_reg_5_57 () (_ BitVec 32))
(declare-fun src_reg_5_11 () (_ BitVec 32))
(declare-fun src_reg_5_56 () (_ BitVec 32))
(declare-fun i66.i_5_66 () (_ BitVec 64))
(declare-fun cond36.i.i_5_130 () (_ BitVec 64))
(declare-fun cmp31.i.i_5_129 () (_ BitVec 1))
(declare-fun dst_reg_5_5 () (_ BitVec 64))
(declare-fun dst_reg_5_101 () (_ BitVec 32))
(declare-fun dst_reg_5_97 () (_ BitVec 64))
(declare-fun dst_reg_5_96 () (_ BitVec 64))
(declare-fun dst_reg_5_95 () (_ BitVec 64))
(declare-fun dst_reg_5_94 () (_ BitVec 32))
(declare-fun dst_reg_5_93 () (_ BitVec 32))
(declare-fun dst_reg_5_92 () (_ BitVec 32))
(declare-fun src_reg_5_111 () (_ BitVec 32))
(declare-fun src_reg_5_110 () (_ BitVec 64))
(declare-fun src_reg_5_109 () (_ BitVec 64))
(declare-fun src_reg_5_108 () (_ BitVec 64))
(declare-fun src_reg_5_107 () (_ BitVec 64))
(declare-fun src_reg_5_106 () (_ BitVec 64))
(declare-fun src_reg_5_105 () (_ BitVec 64))
(declare-fun src_reg_5_104 () (_ BitVec 32))
(declare-fun src_reg_5_103 () (_ BitVec 32))
(declare-fun src_reg_5_102 () (_ BitVec 32))
(declare-fun src_reg1.sroa.11.0.copyload_5_24 () (_ BitVec 64))
(declare-fun src_reg_5_10 () (_ BitVec 32))
(declare-fun dst_reg_5_0 () (_ BitVec 32))
(declare-fun cond53.i.i_5_134 () (_ BitVec 64))
(declare-fun cmp48.i.i_5_133 () (_ BitVec 1))
(declare-fun dst_reg_5_144 () (_ BitVec 32))
(declare-fun dst_reg_5_143 () (_ BitVec 64))
(declare-fun dst_reg_5_142 () (_ BitVec 64))
(declare-fun dst_reg_5_141 () (_ BitVec 64))
(declare-fun dst_reg_5_140 () (_ BitVec 64))
(declare-fun dst_reg_5_139 () (_ BitVec 64))
(declare-fun dst_reg_5_138 () (_ BitVec 64))
(declare-fun dst_reg_5_137 () (_ BitVec 32))
(declare-fun dst_reg_5_136 () (_ BitVec 32))
(declare-fun dst_reg_5_135 () (_ BitVec 32))
(declare-fun src_reg_5_154 () (_ BitVec 32))
(declare-fun src_reg_5_153 () (_ BitVec 64))
(declare-fun src_reg_5_152 () (_ BitVec 64))
(declare-fun src_reg_5_151 () (_ BitVec 64))
(declare-fun src_reg_5_150 () (_ BitVec 64))
(declare-fun src_reg_5_149 () (_ BitVec 64))
(declare-fun src_reg_5_148 () (_ BitVec 64))
(declare-fun src_reg_5_147 () (_ BitVec 32))
(declare-fun src_reg_5_146 () (_ BitVec 32))
(declare-fun src_reg_5_145 () (_ BitVec 32))
(declare-fun cmp.i.i.i.i_5_159 () (_ BitVec 1))
(declare-fun xor.i.i.i_5_157 () (_ BitVec 64))
(declare-fun i.i253.i_5_155 () (_ BitVec 64))
(declare-fun i5.i255.i_5_156 () (_ BitVec 64))
(declare-fun conv.i.i.i.i_5_203 () (_ BitVec 32))
(declare-fun phi.bo_5_205 () (_ BitVec 32))
(declare-fun i.i.i.i.i.i.neg_5_202 () (_ BitVec 32))
(declare-fun num.4.i.i.i.i.i_5_199 () (_ BitVec 32))
(declare-fun word.addr.4.lobit.i.i.i.i.i.neg_5_201 () (_ BitVec 64))
(declare-fun word.addr.4.i.i.i.i.i_5_198 () (_ BitVec 64))
(declare-fun num.3.i.i.i.i.i_5_191 () (_ BitVec 32))
(declare-fun sub22.i.i.i.i.i_5_195 () (_ BitVec 32))
(declare-fun tobool20.not.i.i.i.i.i_5_193 () (_ BitVec 1))
(declare-fun word.addr.3.i.i.i.i.i_5_190 () (_ BitVec 64))
(declare-fun shl23.i.i.i.i.i_5_197 () (_ BitVec 64))
(declare-fun num.2.i.i.i.i.i_5_183 () (_ BitVec 32))
(declare-fun sub16.i.i.i.i.i_5_187 () (_ BitVec 32))
(declare-fun tobool14.not.i.i.i.i.i_5_185 () (_ BitVec 1))
(declare-fun word.addr.2.i.i.i.i.i_5_182 () (_ BitVec 64))
(declare-fun shl17.i.i.i.i.i_5_189 () (_ BitVec 64))
(declare-fun num.1.i.i.i.i.i_5_175 () (_ BitVec 32))
(declare-fun sub10.i.i.i.i.i_5_179 () (_ BitVec 32))
(declare-fun tobool8.not.i.i.i.i.i_5_177 () (_ BitVec 1))
(declare-fun word.addr.1.i.i.i.i.i_5_174 () (_ BitVec 64))
(declare-fun shl11.i.i.i.i.i_5_181 () (_ BitVec 64))
(declare-fun spec.select17.i.i.i.i.i_5_167 () (_ BitVec 32))
(declare-fun sub4.i.i.i.i.i_5_171 () (_ BitVec 32))
(declare-fun tobool2.not.i.i.i.i.i_5_169 () (_ BitVec 1))
(declare-fun spec.select.i.i.i.i.i_5_164 () (_ BitVec 64))
(declare-fun shl5.i.i.i.i.i_5_173 () (_ BitVec 64))
(declare-fun tobool.not.i.i.i.i.i_5_161 () (_ BitVec 1))
(declare-fun shl.i.i.i.i.i_5_163 () (_ BitVec 64))
(declare-fun src_reg_5_248 () (_ BitVec 32))
(declare-fun src_reg_5_247 () (_ BitVec 64))
(declare-fun src_reg_5_246 () (_ BitVec 64))
(declare-fun src_reg_5_245 () (_ BitVec 64))
(declare-fun src_reg_5_244 () (_ BitVec 64))
(declare-fun src_reg_5_243 () (_ BitVec 64))
(declare-fun src_reg_5_242 () (_ BitVec 64))
(declare-fun src_reg_5_241 () (_ BitVec 32))
(declare-fun src_reg_5_240 () (_ BitVec 32))
(declare-fun src_reg_5_239 () (_ BitVec 32))
(declare-fun dst_reg_5_238 () (_ BitVec 32))
(declare-fun dst_reg_5_237 () (_ BitVec 64))
(declare-fun dst_reg_5_236 () (_ BitVec 64))
(declare-fun dst_reg_5_235 () (_ BitVec 64))
(declare-fun dst_reg_5_234 () (_ BitVec 64))
(declare-fun dst_reg_5_233 () (_ BitVec 64))
(declare-fun and.i1.i260.i_5_222 () (_ BitVec 64))
(declare-fun dst_reg_5_232 () (_ BitVec 64))
(declare-fun and4.i.i.i_5_225 () (_ BitVec 64))
(declare-fun dst_reg_5_231 () (_ BitVec 32))
(declare-fun dst_reg_5_230 () (_ BitVec 32))
(declare-fun dst_reg_5_229 () (_ BitVec 32))
(declare-fun retval.0.i.i.i.i_5_206 () (_ BitVec 32))
(declare-fun neg.i.i.i_5_224 () (_ BitVec 64))
(declare-fun or.i.i259.i_5_221 () (_ BitVec 64))
(declare-fun i11.i.i_5_220 () (_ BitVec 64))
(declare-fun retval.sroa.3.0.i.i.i_5_218 () (_ BitVec 64))
(declare-fun i9.i.i_5_219 () (_ BitVec 64))
(declare-fun retval.sroa.0.0.i.i.i_5_216 () (_ BitVec 64))
(declare-fun sub.i.i.i_5_213 () (_ BitVec 64))
(declare-fun cmp.i.i.i_5_208 () (_ BitVec 1))
(declare-fun and.i.i256.i_5_214 () (_ BitVec 64))
(declare-fun notmask.i.i.i_5_211 () (_ BitVec 64))
(declare-fun sh_prom.i.i.i_5_209 () (_ BitVec 64))
(assert (let ((a!1 (and (= tobool253.not.i_5_41 #b1)
                (and (= cmp250.i_5_39 #b1) (= cmp245.i_5_29 #b0))))
      (a!2 (and (= tobool253.not.i_5_41 #b0)
                (and (= cmp250.i_5_39 #b1) (= cmp245.i_5_29 #b0))))
      (a!17 (=> (= cmp245.i_5_29 #b0)
                (and (= dst_reg_5_5 i65.i_5_37)
                     (ite (bvslt i65.i_5_37 #x0000000000000000)
                          (= cmp250.i_5_39 #b1)
                          (= cmp250.i_5_39 #b0)))))
      (a!20 (=> (and (= cmp250.i_5_39 #b1) (= cmp245.i_5_29 #b0))
                (and (ite (= src_reg1.sroa.21.0.copyload_5_22
                             #x0000000000000000)
                          (= tobool253.not.i_5_41 #b1)
                          (= tobool253.not.i_5_41 #b0)))))
      (a!25 (=> (and (= cmp250.i_5_39 #b0) (= cmp245.i_5_29 #b0))
                (and (= shr.i_5_45
                        (bvlshr i65.i_5_37 src_reg1.sroa.24.0.copyload_5_23))))))
(let ((a!3 (or (and (= cmp250.i_5_39 #b0) (= cmp245.i_5_29 #b0)) a!1 a!2))
      (a!21 (and (=> a!1
                     (and (= #x00000001 src_reg_5_56)
                          (= src_reg_5_11 src_reg_5_57)
                          (= src_reg_5_12 src_reg_5_58)
                          (= src_reg_5_13 src_reg_5_59)
                          (= src_reg_5_14 src_reg_5_60)
                          (= src_reg_5_15 src_reg_5_61)
                          (= src_reg_5_16 src_reg_5_62)
                          (= src_reg_5_17 src_reg_5_63)
                          (= src_reg_5_18 src_reg_5_64)
                          (= src_reg_5_19 src_reg_5_65)
                          (= #x00000001 dst_reg_5_46)
                          (= dst_reg_5_1 dst_reg_5_47)
                          (= dst_reg_5_2 dst_reg_5_48)
                          (= dst_reg_5_3 dst_reg_5_49)
                          (= dst_reg_5_4 dst_reg_5_50)
                          (= #x8000000000000000 dst_reg_5_51)
                          (= #x7fffffffffffffff dst_reg_5_52)
                          (= dst_reg_5_7 dst_reg_5_53)
                          (= dst_reg_5_8 dst_reg_5_54)
                          (= dst_reg_5_9 dst_reg_5_55)))
                 (=> a!2
                     (and (= #x00000001 src_reg_5_56)
                          (= src_reg_5_11 src_reg_5_57)
                          (= src_reg_5_12 src_reg_5_58)
                          (= src_reg_5_13 src_reg_5_59)
                          (= src_reg_5_14 src_reg_5_60)
                          (= src_reg_5_15 src_reg_5_61)
                          (= src_reg_5_16 src_reg_5_62)
                          (= src_reg_5_17 src_reg_5_63)
                          (= src_reg_5_18 src_reg_5_64)
                          (= src_reg_5_19 src_reg_5_65)
                          (= #x00000001 dst_reg_5_46)
                          (= dst_reg_5_1 dst_reg_5_47)
                          (= dst_reg_5_2 dst_reg_5_48)
                          (= dst_reg_5_3 dst_reg_5_49)
                          (= dst_reg_5_4 dst_reg_5_50)
                          (= #x0000000000000000 dst_reg_5_51)
                          (= dst_reg_5_6 dst_reg_5_52)
                          (= dst_reg_5_7 dst_reg_5_53)
                          (= dst_reg_5_8 dst_reg_5_54)
                          (= dst_reg_5_9 dst_reg_5_55)))
                 (=> (and (= cmp250.i_5_39 #b0) (= cmp245.i_5_29 #b0))
                     (and (= #x00000001 src_reg_5_56)
                          (= src_reg_5_11 src_reg_5_57)
                          (= src_reg_5_12 src_reg_5_58)
                          (= src_reg_5_13 src_reg_5_59)
                          (= src_reg_5_14 src_reg_5_60)
                          (= src_reg_5_15 src_reg_5_61)
                          (= src_reg_5_16 src_reg_5_62)
                          (= src_reg_5_17 src_reg_5_63)
                          (= src_reg_5_18 src_reg_5_64)
                          (= src_reg_5_19 src_reg_5_65)
                          (= #x00000001 dst_reg_5_46)
                          (= dst_reg_5_1 dst_reg_5_47)
                          (= dst_reg_5_2 dst_reg_5_48)
                          (= dst_reg_5_3 dst_reg_5_49)
                          (= dst_reg_5_4 dst_reg_5_50)
                          (= shr.i_5_45 dst_reg_5_51)
                          (= dst_reg_5_6 dst_reg_5_52)
                          (= dst_reg_5_7 dst_reg_5_53)
                          (= dst_reg_5_8 dst_reg_5_54)
                          (= dst_reg_5_9 dst_reg_5_55))))))
(let ((a!4 (or (and (= tobool.not.i.i_5_26 #b1) a!3)
               (and (= tobool.not.i.i_5_26 #b0) a!3)))
      (a!19 (=> (and (= tobool.not.i.i_5_26 #b1) a!3)
                (and (= dst_reg_5_3 i66.i_5_66)
                     (= shr268.i_5_67
                        (bvlshr i66.i_5_66 src_reg1.sroa.21.0.copyload_5_22)))))
      (a!24 (and (= storemerge5.i_5_70
                    (bvlshr .pn.i_5_69 src_reg1.sroa.21.0.copyload_5_22))
                 (= dst_reg_5_7 i67.i_5_71)
                 (= shr285.i_5_72
                    (bvlshr i67.i_5_71 src_reg1.sroa.24.0.copyload_5_23))
                 (= dst_reg_5_8 i68.i_5_73)
                 (= shr287.i_5_74
                    (bvlshr i68.i_5_73 src_reg1.sroa.21.0.copyload_5_22))
                 (= dst_reg_5_51 i.i213.i_5_75)
                 (= and.i218.i_5_77
                    (bvand storemerge5.i_5_70 #x8000000000000000))
                 (= or.i219.i_5_78 (bvor and.i218.i_5_77 storemerge6.i_5_68))
                 (ite (bvsgt i.i213.i_5_75 or.i219.i_5_78)
                      (= cmp2.i220.i_5_79 #b1)
                      (= cmp2.i220.i_5_79 #b0))
                 (ite (= cmp2.i220.i_5_79 #b1)
                      (= cond.i221.i_5_80 i.i213.i_5_75)
                      (= cond.i221.i_5_80 or.i219.i_5_78))
                 (= dst_reg_5_52 i17.i223.i_5_81)
                 (= and9.i224.i_5_83
                    (bvand storemerge5.i_5_70 #x7fffffffffffffff))
                 (= or10.i225.i_5_84 (bvor and9.i224.i_5_83 storemerge6.i_5_68))
                 (ite (bvslt i17.i223.i_5_81 or10.i225.i_5_84)
                      (= cmp14.i226.i_5_85 #b1)
                      (= cmp14.i226.i_5_85 #b0))
                 (ite (= cmp14.i226.i_5_85 #b1)
                      (= cond19.i227.i_5_86 i17.i223.i_5_81)
                      (= cond19.i227.i_5_86 or10.i225.i_5_84))
                 (ite (bvugt shr285.i_5_72 storemerge6.i_5_68)
                      (= cmp26.i230.i_5_87 #b1)
                      (= cmp26.i230.i_5_87 #b0))
                 (ite (= cmp26.i230.i_5_87 #b1)
                      (= cond31.i231.i_5_88 shr285.i_5_72)
                      (= cond31.i231.i_5_88 storemerge6.i_5_68))
                 (= or37.i234.i_5_89
                    (bvor storemerge5.i_5_70 storemerge6.i_5_68))
                 (ite (bvult shr287.i_5_74 or37.i234.i_5_89)
                      (= cmp41.i235.i_5_90 #b1)
                      (= cmp41.i235.i_5_90 #b0))
                 (ite (= cmp41.i235.i_5_90 #b1)
                      (= cond46.i236.i_5_91 shr287.i_5_74)
                      (= cond46.i236.i_5_91 or37.i234.i_5_89))
                 (=> (and (= tobool.not.i.i_5_26 #b1) a!3)
                     (= storemerge6.i_5_68 shr268.i_5_67))
                 (=> (and (= tobool.not.i.i_5_26 #b0) a!3)
                     (= storemerge6.i_5_68 #x0000000000000000))
                 (=> (and (= tobool.not.i.i_5_26 #b1) a!3)
                     (= .pn.i_5_69 i20.i_5_27))
                 (=> (and (= tobool.not.i.i_5_26 #b0) a!3)
                     (= .pn.i_5_69 #xffffffffffffffff)))))
(let ((a!5 (and (= cmp1.i248.i_5_117 #b0)
                (and (= cmp.i246.i_5_114 #b0) (or a!4 (= cmp245.i_5_29 #b1)))))
      (a!6 (and (= cmp1.i248.i_5_117 #b1)
                (and (= cmp.i246.i_5_114 #b0) (or a!4 (= cmp245.i_5_29 #b1)))))
      (a!16 (and (= dst_reg_5_97 i.i245.i_5_112)
                 (ite (bvsgt i.i245.i_5_112 #xffffffffffffffff)
                      (= cmp.i246.i_5_114 #b1)
                      (= cmp.i246.i_5_114 #b0))
                 (=> (= cmp245.i_5_29 #b1)
                     (and (= #x00000001 src_reg_5_102)
                          (= src_reg_5_11 src_reg_5_103)
                          (= src_reg_5_12 src_reg_5_104)
                          (= src_reg_5_13 src_reg_5_105)
                          (= src_reg_5_14 src_reg_5_106)
                          (= src_reg_5_15 src_reg_5_107)
                          (= src_reg_5_16 src_reg_5_108)
                          (= src_reg_5_17 src_reg_5_109)
                          (= src_reg_5_18 src_reg_5_110)
                          (= src_reg_5_19 src_reg_5_111)
                          (= #x00000001 dst_reg_5_92)
                          (= dst_reg_5_1 dst_reg_5_93)
                          (= dst_reg_5_2 dst_reg_5_94)
                          (= #x0000000000000000 dst_reg_5_95)
                          (= #xffffffffffffffff dst_reg_5_96)
                          (= #x8000000000000000 dst_reg_5_97)
                          (= #x7fffffffffffffff dst_reg_5_98)
                          (= #x0000000000000000 dst_reg_5_99)
                          (= #xffffffffffffffff dst_reg_5_100)
                          (= dst_reg_5_9 dst_reg_5_101)))
                 (=> a!4
                     (and (= src_reg_5_56 src_reg_5_102)
                          (= src_reg_5_57 src_reg_5_103)
                          (= src_reg_5_58 src_reg_5_104)
                          (= src_reg_5_59 src_reg_5_105)
                          (= src_reg_5_60 src_reg_5_106)
                          (= src_reg_5_61 src_reg_5_107)
                          (= src_reg_5_62 src_reg_5_108)
                          (= src_reg_5_63 src_reg_5_109)
                          (= src_reg_5_64 src_reg_5_110)
                          (= src_reg_5_65 src_reg_5_111)
                          (= dst_reg_5_46 dst_reg_5_92)
                          (= dst_reg_5_47 dst_reg_5_93)
                          (= dst_reg_5_48 dst_reg_5_94)
                          (= storemerge6.i_5_68 dst_reg_5_95)
                          (= storemerge5.i_5_70 dst_reg_5_96)
                          (= cond.i221.i_5_80 dst_reg_5_97)
                          (= cond19.i227.i_5_86 dst_reg_5_98)
                          (= cond31.i231.i_5_88 dst_reg_5_99)
                          (= cond46.i236.i_5_91 dst_reg_5_100)
                          (= dst_reg_5_55 dst_reg_5_101)))))
      (a!26 (=> (and (= cmp.i246.i_5_114 #b0) (or a!4 (= cmp245.i_5_29 #b1)))
                (and (= dst_reg_5_98 i24.i.i_5_115)
                     (ite (bvslt i24.i.i_5_115 #x0000000000000000)
                          (= cmp1.i248.i_5_117 #b1)
                          (= cmp1.i248.i_5_117 #b0))))))
(let ((a!7 (or a!6
               (and (= cmp.i246.i_5_114 #b1) (or a!4 (= cmp245.i_5_29 #b1)))))
      (a!12 (=> (and (= cmp40.i.i_5_132 #b0) (and (= cmp21.i.i_5_127 #b0) a!5))
                (and (= src_reg_5_102 src_reg_5_145)
                     (= src_reg_5_103 src_reg_5_146)
                     (= src_reg_5_104 src_reg_5_147)
                     (= src_reg_5_105 src_reg_5_148)
                     (= src_reg_5_106 src_reg_5_149)
                     (= src_reg_5_107 src_reg_5_150)
                     (= src_reg_5_108 src_reg_5_151)
                     (= src_reg_5_109 src_reg_5_152)
                     (= src_reg_5_110 src_reg_5_153)
                     (= src_reg_5_111 src_reg_5_154)
                     (= dst_reg_5_92 dst_reg_5_135)
                     (= dst_reg_5_93 dst_reg_5_136)
                     (= dst_reg_5_94 dst_reg_5_137)
                     (= dst_reg_5_95 dst_reg_5_138)
                     (= dst_reg_5_96 dst_reg_5_139)
                     (= dst_reg_5_97 dst_reg_5_140)
                     (= dst_reg_5_98 dst_reg_5_141)
                     (= dst_reg_5_99 dst_reg_5_142)
                     (= dst_reg_5_100 dst_reg_5_143)
                     (= dst_reg_5_101 dst_reg_5_144))))
      (a!13 (=> (and (= cmp40.i.i_5_132 #b1) (and (= cmp21.i.i_5_127 #b0) a!5))
                (and (= src_reg_5_102 src_reg_5_145)
                     (= src_reg_5_103 src_reg_5_146)
                     (= src_reg_5_104 src_reg_5_147)
                     (= src_reg_5_105 src_reg_5_148)
                     (= src_reg_5_106 src_reg_5_149)
                     (= src_reg_5_107 src_reg_5_150)
                     (= src_reg_5_108 src_reg_5_151)
                     (= src_reg_5_109 src_reg_5_152)
                     (= src_reg_5_110 src_reg_5_153)
                     (= src_reg_5_111 src_reg_5_154)
                     (= dst_reg_5_92 dst_reg_5_135)
                     (= dst_reg_5_93 dst_reg_5_136)
                     (= dst_reg_5_94 dst_reg_5_137)
                     (= dst_reg_5_95 dst_reg_5_138)
                     (= dst_reg_5_96 dst_reg_5_139)
                     (= cond53.i.i_5_134 dst_reg_5_140)
                     (= i28.i.i_5_125 dst_reg_5_141)
                     (= cond53.i.i_5_134 dst_reg_5_142)
                     (= dst_reg_5_100 dst_reg_5_143)
                     (= dst_reg_5_101 dst_reg_5_144))))
      (a!15 (=> (and (= cmp40.i.i_5_132 #b1) (and (= cmp21.i.i_5_127 #b0) a!5))
                (and (ite (bvugt i.i245.i_5_112 i29.i.i_5_128)
                          (= cmp48.i.i_5_133 #b1)
                          (= cmp48.i.i_5_133 #b0))
                     (ite (= cmp48.i.i_5_133 #b1)
                          (= cond53.i.i_5_134 i.i245.i_5_112)
                          (= cond53.i.i_5_134 i29.i.i_5_128)))))
      (a!18 (=> (and (= cmp21.i.i_5_127 #b1) a!5)
                (and (ite (bvult i24.i.i_5_115 i28.i.i_5_125)
                          (= cmp31.i.i_5_129 #b1)
                          (= cmp31.i.i_5_129 #b0))
                     (ite (= cmp31.i.i_5_129 #b1)
                          (= cond36.i.i_5_130 i24.i.i_5_115)
                          (= cond36.i.i_5_130 i28.i.i_5_125)))))
      (a!22 (=> (and (= cmp21.i.i_5_127 #b0) a!5)
                (and (ite (bvslt i29.i.i_5_128 #x0000000000000000)
                          (= cmp40.i.i_5_132 #b1)
                          (= cmp40.i.i_5_132 #b0)))))
      (a!23 (=> a!5
                (and (= dst_reg_5_100 i28.i.i_5_125)
                     (ite (bvsgt i28.i.i_5_125 #xffffffffffffffff)
                          (= cmp21.i.i_5_127 #b1)
                          (= cmp21.i.i_5_127 #b0))
                     (= dst_reg_5_99 i29.i.i_5_128)))))
(let ((a!8 (or (and (= cmp40.i.i_5_132 #b1) (and (= cmp21.i.i_5_127 #b0) a!5))
               (and (= cmp40.i.i_5_132 #b0) (and (= cmp21.i.i_5_127 #b0) a!5))
               (and (= cmp21.i.i_5_127 #b1) a!5)
               a!7))
      (a!14 (and (= dst_reg_5_142 i.i253.i_5_155)
                 (= dst_reg_5_143 i5.i255.i_5_156)
                 (= xor.i.i.i_5_157 (bvxor i5.i255.i_5_156 i.i253.i_5_155))
                 (ite (= xor.i.i.i_5_157 #x0000000000000000)
                      (= cmp.i.i.i.i_5_159 #b1)
                      (= cmp.i.i.i.i_5_159 #b0))
                 (=> a!7
                     (and (= src_reg_5_102 src_reg_5_145)
                          (= src_reg_5_103 src_reg_5_146)
                          (= src_reg_5_104 src_reg_5_147)
                          (= src_reg_5_105 src_reg_5_148)
                          (= src_reg_5_106 src_reg_5_149)
                          (= src_reg_5_107 src_reg_5_150)
                          (= src_reg_5_108 src_reg_5_151)
                          (= src_reg_5_109 src_reg_5_152)
                          (= src_reg_5_110 src_reg_5_153)
                          (= src_reg_5_111 src_reg_5_154)
                          (= dst_reg_5_92 dst_reg_5_135)
                          (= dst_reg_5_93 dst_reg_5_136)
                          (= dst_reg_5_94 dst_reg_5_137)
                          (= dst_reg_5_95 dst_reg_5_138)
                          (= dst_reg_5_96 dst_reg_5_139)
                          (= cond.i250.i_5_120 dst_reg_5_140)
                          (= cond17.i.i_5_124 dst_reg_5_141)
                          (= cond.i250.i_5_120 dst_reg_5_142)
                          (= cond17.i.i_5_124 dst_reg_5_143)
                          (= dst_reg_5_101 dst_reg_5_144)))
                 (=> (and (= cmp21.i.i_5_127 #b1) a!5)
                     (and (= src_reg_5_102 src_reg_5_145)
                          (= src_reg_5_103 src_reg_5_146)
                          (= src_reg_5_104 src_reg_5_147)
                          (= src_reg_5_105 src_reg_5_148)
                          (= src_reg_5_106 src_reg_5_149)
                          (= src_reg_5_107 src_reg_5_150)
                          (= src_reg_5_108 src_reg_5_151)
                          (= src_reg_5_109 src_reg_5_152)
                          (= src_reg_5_110 src_reg_5_153)
                          (= src_reg_5_111 src_reg_5_154)
                          (= dst_reg_5_92 dst_reg_5_135)
                          (= dst_reg_5_93 dst_reg_5_136)
                          (= dst_reg_5_94 dst_reg_5_137)
                          (= dst_reg_5_95 dst_reg_5_138)
                          (= dst_reg_5_96 dst_reg_5_139)
                          (= i29.i.i_5_128 dst_reg_5_140)
                          (= cond36.i.i_5_130 dst_reg_5_141)
                          (= dst_reg_5_99 dst_reg_5_142)
                          (= cond36.i.i_5_130 dst_reg_5_143)
                          (= dst_reg_5_101 dst_reg_5_144)))
                 a!12
                 a!13))
      (a!27 (=> a!7
                (and (= dst_reg_5_99 i25.i.i_5_118)
                     (ite (bvugt i.i245.i_5_112 i25.i.i_5_118)
                          (= cmp4.i.i_5_119 #b1)
                          (= cmp4.i.i_5_119 #b0))
                     (ite (= cmp4.i.i_5_119 #b1)
                          (= cond.i250.i_5_120 i.i245.i_5_112)
                          (= cond.i250.i_5_120 i25.i.i_5_118))
                     (= dst_reg_5_98 i26.i.i_5_121)
                     (= dst_reg_5_100 i27.i.i_5_122)
                     (ite (bvult i26.i.i_5_121 i27.i.i_5_122)
                          (= cmp12.i.i_5_123 #b1)
                          (= cmp12.i.i_5_123 #b0))
                     (ite (= cmp12.i.i_5_123 #b1)
                          (= cond17.i.i_5_124 i26.i.i_5_121)
                          (= cond17.i.i_5_124 i27.i.i_5_122))))))
(let ((a!9 (and (ite (bvugt retval.0.i.i.i.i_5_206 #x0000003f)
                     (= cmp.i.i.i_5_208 #b1)
                     (= cmp.i.i.i_5_208 #b0))
                (= sh_prom.i.i.i_5_209
                   ((_ zero_extend 32) retval.0.i.i.i.i_5_206))
                (= notmask.i.i.i_5_211
                   (bvshl #xffffffffffffffff sh_prom.i.i.i_5_209))
                (= sub.i.i.i_5_213
                   (bvxor notmask.i.i.i_5_211 #xffffffffffffffff))
                (= and.i.i256.i_5_214
                   (bvand notmask.i.i.i_5_211 i.i253.i_5_155))
                (ite (= cmp.i.i.i_5_208 #b1)
                     (= retval.sroa.0.0.i.i.i_5_216 #x0000000000000000)
                     (= retval.sroa.0.0.i.i.i_5_216 and.i.i256.i_5_214))
                (ite (= cmp.i.i.i_5_208 #b1)
                     (= retval.sroa.3.0.i.i.i_5_218 #xffffffffffffffff)
                     (= retval.sroa.3.0.i.i.i_5_218 sub.i.i.i_5_213))
                (= dst_reg_5_95 i9.i.i_5_219)
                (= dst_reg_5_96 i11.i.i_5_220)
                (= or.i.i259.i_5_221
                   (bvor retval.sroa.0.0.i.i.i_5_216 i9.i.i_5_219))
                (= and.i1.i260.i_5_222
                   (bvand retval.sroa.3.0.i.i.i_5_218 i11.i.i_5_220))
                (= neg.i.i.i_5_224
                   (bvxor and.i1.i260.i_5_222 #xffffffffffffffff))
                (= and4.i.i.i_5_225 (bvand or.i.i259.i_5_221 neg.i.i.i_5_224))
                (=> (and (= cmp.i.i.i.i_5_159 #b0) a!8)
                    (= retval.0.i.i.i.i_5_206 phi.bo_5_205))
                (=> (and (= cmp.i.i.i.i_5_159 #b1) a!8)
                    (= retval.0.i.i.i.i_5_206 #x00000000))
                (= dst_reg_5_135 dst_reg_5_229)
                (= dst_reg_5_136 dst_reg_5_230)
                (= dst_reg_5_137 dst_reg_5_231)
                (= and4.i.i.i_5_225 dst_reg_5_232)
                (= and.i1.i260.i_5_222 dst_reg_5_233)
                (= dst_reg_5_140 dst_reg_5_234)
                (= dst_reg_5_141 dst_reg_5_235)
                (= dst_reg_5_142 dst_reg_5_236)
                (= dst_reg_5_143 dst_reg_5_237)
                (= dst_reg_5_144 dst_reg_5_238)
                (= src_reg_5_145 src_reg_5_239)
                (= src_reg_5_146 src_reg_5_240)
                (= src_reg_5_147 src_reg_5_241)
                (= src_reg_5_148 src_reg_5_242)
                (= src_reg_5_149 src_reg_5_243)
                (= src_reg_5_150 src_reg_5_244)
                (= src_reg_5_151 src_reg_5_245)
                (= src_reg_5_152 src_reg_5_246)
                (= src_reg_5_153 src_reg_5_247)
                (= src_reg_5_154 src_reg_5_248)))
      (a!11 (=> (and (= cmp.i.i.i.i_5_159 #b0) a!8)
                (and (ite (bvult xor.i.i.i_5_157 #x0000000100000000)
                          (= tobool.not.i.i.i.i.i_5_161 #b1)
                          (= tobool.not.i.i.i.i.i_5_161 #b0))
                     (= shl.i.i.i.i.i_5_163
                        (bvshl xor.i.i.i_5_157 #x0000000000000020))
                     (ite (= tobool.not.i.i.i.i.i_5_161 #b1)
                          (= spec.select.i.i.i.i.i_5_164 shl.i.i.i.i.i_5_163)
                          (= spec.select.i.i.i.i.i_5_164 xor.i.i.i_5_157))
                     (ite (= tobool.not.i.i.i.i.i_5_161 #b1)
                          (= spec.select17.i.i.i.i.i_5_167 #x0000001f)
                          (= spec.select17.i.i.i.i.i_5_167 #x0000003f))
                     (ite (bvult spec.select.i.i.i.i.i_5_164 #x0001000000000000)
                          (= tobool2.not.i.i.i.i.i_5_169 #b1)
                          (= tobool2.not.i.i.i.i.i_5_169 #b0))
                     (= sub4.i.i.i.i.i_5_171
                        (bvadd spec.select17.i.i.i.i.i_5_167 #xfffffff0))
                     (= shl5.i.i.i.i.i_5_173
                        (bvshl spec.select.i.i.i.i.i_5_164 #x0000000000000010))
                     (ite (= tobool2.not.i.i.i.i.i_5_169 #b1)
                          (= word.addr.1.i.i.i.i.i_5_174 shl5.i.i.i.i.i_5_173)
                          (= word.addr.1.i.i.i.i.i_5_174
                             spec.select.i.i.i.i.i_5_164))
                     (ite (= tobool2.not.i.i.i.i.i_5_169 #b1)
                          (= num.1.i.i.i.i.i_5_175 sub4.i.i.i.i.i_5_171)
                          (= num.1.i.i.i.i.i_5_175
                             spec.select17.i.i.i.i.i_5_167))
                     (ite (bvult word.addr.1.i.i.i.i.i_5_174 #x0100000000000000)
                          (= tobool8.not.i.i.i.i.i_5_177 #b1)
                          (= tobool8.not.i.i.i.i.i_5_177 #b0))
                     (= sub10.i.i.i.i.i_5_179
                        (bvadd num.1.i.i.i.i.i_5_175 #xfffffff8))
                     (= shl11.i.i.i.i.i_5_181
                        (bvshl word.addr.1.i.i.i.i.i_5_174 #x0000000000000008))
                     (ite (= tobool8.not.i.i.i.i.i_5_177 #b1)
                          (= word.addr.2.i.i.i.i.i_5_182 shl11.i.i.i.i.i_5_181)
                          (= word.addr.2.i.i.i.i.i_5_182
                             word.addr.1.i.i.i.i.i_5_174))
                     (ite (= tobool8.not.i.i.i.i.i_5_177 #b1)
                          (= num.2.i.i.i.i.i_5_183 sub10.i.i.i.i.i_5_179)
                          (= num.2.i.i.i.i.i_5_183 num.1.i.i.i.i.i_5_175))
                     (ite (bvult word.addr.2.i.i.i.i.i_5_182 #x1000000000000000)
                          (= tobool14.not.i.i.i.i.i_5_185 #b1)
                          (= tobool14.not.i.i.i.i.i_5_185 #b0))
                     (= sub16.i.i.i.i.i_5_187
                        (bvadd num.2.i.i.i.i.i_5_183 #xfffffffc))
                     (= shl17.i.i.i.i.i_5_189
                        (bvshl word.addr.2.i.i.i.i.i_5_182 #x0000000000000004))
                     (ite (= tobool14.not.i.i.i.i.i_5_185 #b1)
                          (= word.addr.3.i.i.i.i.i_5_190 shl17.i.i.i.i.i_5_189)
                          (= word.addr.3.i.i.i.i.i_5_190
                             word.addr.2.i.i.i.i.i_5_182))
                     (ite (= tobool14.not.i.i.i.i.i_5_185 #b1)
                          (= num.3.i.i.i.i.i_5_191 sub16.i.i.i.i.i_5_187)
                          (= num.3.i.i.i.i.i_5_191 num.2.i.i.i.i.i_5_183))
                     (ite (bvult word.addr.3.i.i.i.i.i_5_190 #x4000000000000000)
                          (= tobool20.not.i.i.i.i.i_5_193 #b1)
                          (= tobool20.not.i.i.i.i.i_5_193 #b0))
                     (= sub22.i.i.i.i.i_5_195
                        (bvadd num.3.i.i.i.i.i_5_191 #x000000fe))
                     (= shl23.i.i.i.i.i_5_197
                        (bvshl word.addr.3.i.i.i.i.i_5_190 #x0000000000000002))
                     (ite (= tobool20.not.i.i.i.i.i_5_193 #b1)
                          (= word.addr.4.i.i.i.i.i_5_198 shl23.i.i.i.i.i_5_197)
                          (= word.addr.4.i.i.i.i.i_5_198
                             word.addr.3.i.i.i.i.i_5_190))
                     (ite (= tobool20.not.i.i.i.i.i_5_193 #b1)
                          (= num.4.i.i.i.i.i_5_199 sub22.i.i.i.i.i_5_195)
                          (= num.4.i.i.i.i.i_5_199 num.3.i.i.i.i.i_5_191))
                     (= word.addr.4.lobit.i.i.i.i.i.neg_5_201
                        (bvlshr word.addr.4.i.i.i.i.i_5_198 #x000000000000003f))
                     (= i.i.i.i.i.i.neg_5_202
                        ((_ extract 31 0) word.addr.4.lobit.i.i.i.i.i.neg_5_201))
                     (= conv.i.i.i.i_5_203
                        (bvadd num.4.i.i.i.i.i_5_199 i.i.i.i.i.i.neg_5_202))
                     (= phi.bo_5_205 (bvand conv.i.i.i.i_5_203 #x000000ff))))))
(let ((a!10 (=> (or (and (= cmp.i.i.i.i_5_159 #b0) a!8)
                    (and (= cmp.i.i.i.i_5_159 #b1) a!8))
                a!9)))
  (and a!10
       a!11
       (=> a!8 a!14)
       a!15
       (= dst_reg_5_0 dst_reg_5_0)
       (= dst_reg_5_1 dst_reg_5_1)
       (= dst_reg_5_2 dst_reg_5_2)
       (= dst_reg_5_3 dst_reg_5_3)
       (= dst_reg_5_4 dst_reg_5_4)
       (= dst_reg_5_5 dst_reg_5_5)
       (= dst_reg_5_6 dst_reg_5_6)
       (= dst_reg_5_7 dst_reg_5_7)
       (= dst_reg_5_8 dst_reg_5_8)
       (= dst_reg_5_9 dst_reg_5_9)
       (= src_reg_5_10 src_reg_5_10)
       (= src_reg_5_11 src_reg_5_11)
       (= src_reg_5_12 src_reg_5_12)
       (= src_reg_5_13 src_reg_5_13)
       (= src_reg_5_14 src_reg_5_14)
       (= src_reg_5_15 src_reg_5_15)
       (= src_reg_5_16 src_reg_5_16)
       (= src_reg_5_17 src_reg_5_17)
       (= src_reg_5_18 src_reg_5_18)
       (= src_reg_5_19 src_reg_5_19)
       (= src_reg_5_17 src_reg1.sroa.21.0.copyload_5_22)
       (= src_reg_5_18 src_reg1.sroa.24.0.copyload_5_23)
       (= src_reg_5_14 src_reg1.sroa.11.0.copyload_5_24)
       (ite (= src_reg1.sroa.11.0.copyload_5_24 #x0000000000000000)
            (= tobool.not.i.i_5_26 #b1)
            (= tobool.not.i.i_5_26 #b0))
       (= dst_reg_5_4 i20.i_5_27)
       (ite (bvugt src_reg1.sroa.24.0.copyload_5_23 #x000000000000003f)
            (= cmp245.i_5_29 #b1)
            (= cmp245.i_5_29 #b0))
       (=> (or a!4 (= cmp245.i_5_29 #b1)) a!16)
       a!17
       a!18
       a!19
       a!20
       (=> a!3 a!21)
       a!22
       a!23
       (=> a!4 a!24)
       a!25
       a!26
       a!27))))))))))

;{"dst_reg":["dst_reg_5_0",[""],"dst_reg_5_1","dst_reg_5_2",["dst_reg_5_3","dst_reg_5_4"],"dst_reg_5_5","dst_reg_5_6","dst_reg_5_7","dst_reg_5_8","dst_reg_5_9"],"src_reg":["src_reg_5_10",[""],"src_reg_5_11","src_reg_5_12",["src_reg_5_13","src_reg_5_14"],"src_reg_5_15","src_reg_5_16","src_reg_5_17","src_reg_5_18","src_reg_5_19"]}
;{"dst_reg":["dst_reg_5_229",[""],"dst_reg_5_230","dst_reg_5_231",["dst_reg_5_232","dst_reg_5_233"],"dst_reg_5_234","dst_reg_5_235","dst_reg_5_236","dst_reg_5_237","dst_reg_5_238"],"src_reg":["src_reg_5_239",[""],"src_reg_5_240","src_reg_5_241",["src_reg_5_242","src_reg_5_243"],"src_reg_5_244","src_reg_5_245","src_reg_5_246","src_reg_5_247","src_reg_5_248"]}
